
Presolve eliminates 17710 constraints and 16114 variables.
Adjusted problem:
87206 variables:
	86366 binary variables
	840 linear variables
87426 constraints, all linear; 734846 nonzeros
	1802 equality constraints
	85624 inequality constraints
1 linear objective; 85526 nonzeros.

Gurobi 9.1.2: mipgap 0.01
outlev 1
timelim 3600
Gurobi Optimizer version 9.1.2 build v9.1.2rc0 (linux64)
Thread count: 4 physical cores, 4 logical processors, using up to 4 threads
Optimize a model with 87426 rows, 87206 columns and 734846 nonzeros
Model fingerprint: 0x2477c20e
Variable types: 840 continuous, 86366 integer (86366 binary)
Coefficient statistics:
  Matrix range     [2e-02, 2e+02]
  Objective range  [4e+01, 2e+04]
  Bounds range     [1e+00, 2e+02]
  RHS range        [1e+00, 2e+02]
Presolve removed 1680 rows and 0 columns (presolve time = 6s) ...
Presolve removed 1680 rows and 0 columns
Presolve time: 7.21s
Presolved: 85746 rows, 87206 columns, 481502 nonzeros
Variable types: 840 continuous, 86366 integer (86366 binary)

Deterministic concurrent LP optimizer: primal and dual simplex
Showing first log only...


Root simplex log...

Iteration    Objective       Primal Inf.    Dual Inf.      Time
       0    3.4437200e+05   1.834875e+03   2.767651e+10     13s
    4140    3.8016129e+04   1.161285e+02   1.603182e+09     15s
   12108    2.7147579e+04   3.113105e+01   3.939050e+09     20s
   18084    2.2232140e+04   0.000000e+00   5.201331e+06     25s
   23894    7.0754321e+03   0.000000e+00   1.714996e+05     30s
Concurrent spin time: 0.00s

Solved with dual simplex

Root relaxation: objective 5.095000e+03, 10255 iterations, 19.03 seconds
Total elapsed time = 35.47s

    Nodes    |    Current Node    |     Objective Bounds      |     Work
 Expl Unexpl |  Obj  Depth IntInf | Incumbent    BestBd   Gap | It/Node Time

     0     0 5095.00000    0  428          - 5095.00000      -     -   37s
     0     0 5095.00000    0  443          - 5095.00000      -     -   93s
     0     0 5095.48000    0  464          - 5095.48000      -     -  100s
     0     0 5098.00000    0  488          - 5098.00000      -     -  103s
     0     0 5098.00000    0  464          - 5098.00000      -     -  106s
     0     0 5098.00000    0  396          - 5098.00000      -     -  119s
     0     0 5098.00000    0  449          - 5098.00000      -     -  123s
     0     0 5098.00000    0  467          - 5098.00000      -     -  131s
     0     0 5098.00000    0  447          - 5098.00000      -     -  134s
     0     0 5098.00000    0  412          - 5098.00000      -     -  143s
     0     0 5098.00000    0  434          - 5098.00000      -     -  146s
     0     0 5098.00000    0  407          - 5098.00000      -     -  158s
H    0     0                    29151.000000 5098.00000  82.5%     -  159s
     0     0 5098.00000    0  407 29151.0000 5098.00000  82.5%     -  189s
     0     2 5102.00000    0  407 29151.0000 5102.00000  82.5%     -  275s
     1     4 5102.00000    1  391 29151.0000 5102.00000  82.5%   481  280s
     3     8 5102.00000    2  417 29151.0000 5102.00000  82.5%   343  340s
     7    12 5102.00000    3  477 29151.0000 5102.00000  82.5%   429  410s
    11    16 5102.00000    3  497 29151.0000 5102.00000  82.5%   607  449s
    15    20 5102.00000    4  480 29151.0000 5102.00000  82.5%   559  452s
    19    24 5102.00000    5  466 29151.0000 5102.00000  82.5%   449  456s
    23    32 5102.00000    5  471 29151.0000 5102.00000  82.5%   379  461s
    31    36 5102.00000    6  469 29151.0000 5102.00000  82.5%   289  572s
    35    42 5102.00000    7  453 29151.0000 5102.00000  82.5%   270  579s
    41    72 5102.00000    8  449 29151.0000 5102.00000  82.5%   243  592s
    71    76 5102.00000   13  444 29151.0000 5102.00000  82.5%   151  754s
H   72    76                    12158.000000 5102.00000  58.0%   149  754s
    75   104 5102.00000   14  445 12158.0000 5102.00000  58.0%   154  793s
   103   202 5102.00000   23  443 12158.0000 5102.00000  58.0%   135  833s
   201   260 5103.50500   40  444 12158.0000 5102.00000  58.0%  99.4  866s
   259   346 5102.00000   43  438 12158.0000 5102.00000  58.0%  94.3  900s
   345   419 5102.00000   51  449 12158.0000 5102.00000  58.0%  81.7  932s
   418   483 5102.00000   58  412 12158.0000 5102.00000  58.0%  79.8  967s
   482   550 5102.05000   67  422 12158.0000 5102.00000  58.0%  79.8 1002s
   549   615 5102.76286   73  450 12158.0000 5102.00000  58.0%  84.5 1123s
H  582   615                    12101.000000 5102.00000  57.8%  86.2 1123s
   614   703 5104.16250   84  405 12101.0000 5102.00000  57.8%  85.6 1165s
   702   774 5105.34361   93  404 12101.0000 5102.00000  57.8%  88.7 1205s
H  721   774                    6185.0000000 5102.00000  17.5%  89.7 1205s
   776   878 5106.30361  102  409 6185.00000 5102.00000  17.5%  90.9 1252s
   882  1021 5115.92687  124  400 6185.00000 5102.00000  17.5%  88.5 1302s
  1026  1152 5122.04234  154  410 6185.00000 5102.00000  17.5%  83.6 1351s
  1159  1290 5137.43831  185  386 6185.00000 5102.00000  17.5%  79.4 1400s
  1298  1449 5151.13856  200  407 6185.00000 5102.00000  17.5%  75.4 1447s
  1457  1627 5159.09493  224  388 6185.00000 5102.00000  17.5%  71.0 1496s
  1636  1793 5165.53216  259  384 6185.00000 5102.00000  17.5%  67.1 1546s
  1824  1886 5169.52375  293  391 6185.00000 5102.00000  17.5%  63.8 1592s
H 1920  1890                    6176.0000000 5102.00000  17.4%  63.2 1718s
  1924  2082 5176.03394  318  367 6176.00000 5102.00000  17.4%  63.6 1768s
  2116  2311 5189.45578  341  378 6176.00000 5102.00000  17.4%  62.3 1822s
  2345  2516 5200.31830  385  383 6176.00000 5102.00000  17.4%  59.8 1865s
  2550  2744 5216.33852  419  364 6176.00000 5102.00000  17.4%  58.8 1905s
  2779  2949 5271.98996  453  352 6176.00000 5102.00000  17.4%  58.3 1947s
  3004  3093 5284.68045  496  337 6176.00000 5102.00000  17.4%  57.8 1986s
  3153  3235 5102.00000   27  457 6176.00000 5102.00000  17.4%  58.9 2029s
  3313  3460 5121.70300   71  402 6176.00000 5102.00000  17.4%  59.7 2071s
  3539  3461 5199.11779  306  407 6176.00000 5102.00000  17.4%  59.9 2133s
  3541  3462 5301.54809  755  412 6176.00000 5102.00000  17.4%  59.8 2216s
  3542  3463 5115.40000   53  403 6176.00000 5102.00000  17.4%  59.8 2312s
H 3542  3289                    6165.0000000 5102.00000  17.2%  59.8 2314s
  3543  3290 5935.95084  505  435 6165.00000 5102.00000  17.2%  59.8 2324s
H 3543  3126                    6093.0000000 5102.00000  16.3%  59.8 2409s
  3544  3126 5147.03076  168  411 6093.00000 5102.00000  16.3%  59.8 2431s
  3545  3127 5161.90000  229  433 6093.00000 5102.00000  16.3%  59.8 2459s
  3546  3128 5277.43825  593  377 6093.00000 5102.00000  16.3%  59.7 2525s
  3547  3128 5881.90760  452  377 6093.00000 5102.00000  16.3%  59.7 2537s
  3548  3129 5252.93773  409  377 6093.00000 5102.00000  16.3%  59.7 2543s
  3549  3133 5102.00000   11  381 6093.00000 5102.00000  16.3%  65.5 2646s
  3551  3136 5102.00000   12  396 6093.00000 5102.00000  16.3%  65.5 2750s
  3555  3139 5102.00000   13  401 6093.00000 5102.00000  16.3%  65.6 2759s
  3559  3141 5102.00000   13  397 6093.00000 5102.00000  16.3%  65.5 2769s
  3563  3144 5102.00000   14  420 6093.00000 5102.00000  16.3%  65.5 2776s
  3567  3147 5102.00000   14  413 6093.00000 5102.00000  16.3%  65.5 2780s
  3571  3149 5102.00000   15  414 6093.00000 5102.00000  16.3%  65.4 2786s
H 3575  2995                    6031.0000000 5102.00000  15.4%  65.4 2898s
H 3579  2849                    6010.0000000 5102.00000  15.1%  65.3 3020s
H 3580  2707                    6000.0000000 5102.00000  15.0%  65.3 3020s
H 3582  2573                    5999.0000000 5102.00000  15.0%  65.3 3020s
  3583  2580 5102.00000   16  418 5999.00000 5102.00000  15.0%  65.3 3033s
  3591  2585 5102.00000   17  393 5999.00000 5102.00000  15.0%  65.2 3043s
  3598  2589 5102.00000   18  419 5999.00000 5102.00000  15.0%  65.1 3060s
  3605  2597 5102.00000   18  406 5999.00000 5102.00000  15.0%  65.1 3075s
  3615  2623 5102.00000   20  419 5999.00000 5102.00000  15.0%  64.9 3104s
  3644  2676 5102.00000   24  402 5999.00000 5102.00000  15.0%  64.6 3143s
  3707  2747 5102.00000   31  405 5999.00000 5102.00000  15.0%  64.0 3195s
  3801  2791 5102.00000   40  392 5999.00000 5102.00000  15.0%  63.1 3235s
  3876  2825 5107.77417   46  410 5999.00000 5102.00000  15.0%  62.5 3278s
  3935  2833 5108.71773   54  399 5999.00000 5102.00000  15.0%  62.2 3454s
  3963  2968 5119.60250   57  397 5999.00000 5102.00000  15.0%  62.0 3505s
  4107  3026 5116.82810   76  372 5999.00000 5102.00000  15.0%  61.4 3549s
  4216  3061 5112.69101   88  398 5999.00000 5102.00000  15.0%  61.1 3600s
H 4235  2927                    5994.0000000 5102.00000  14.9%  61.1 3600s

Cutting planes:
  Learned: 2
  Gomory: 36
  Implied bound: 219
  Projected implied bound: 6
  MIR: 104
  Flow cover: 101
  Zero half: 36
  RLT: 11
  Relax-and-lift: 212

Explored 4288 nodes (288061 simplex iterations) in 3600.59 seconds
Thread count was 4 (of 4 available processors)

Solution count 10: 5994 5999 6000 ... 12101

Time limit reached
Best objective 5.994000000000e+03, best bound 5.102000000000e+03, gap 14.8815%
Gurobi 9.1.2: time limit with a feasible solution; objective 5994
288061 simplex iterations
4288 branch-and-cut nodes
No basis.
No dual variables returned.
sum{(i,j) in Arcs, k in K: i != j} c[i,j]*x[i,j,k] + sum{(i,j) in Arcs, 
  k in K} cto[i,j]*x[i,j,k] = 5994

sum{(i,j) in Arcs, k in K: i != j} c[i,j]*x[i,j,k] = 748

sum{(i,j) in Arcs, k in K: i != j} cto[i,j]*x[i,j,k] = 5246

COST = 5994

x  1  2 costo: 1.00, cto: 38.00, dano: 0.030000
x  2 36 costo: 22.00, cto: 49.00, dano: 1.040000
x  5  1 costo: 3.00, cto: 39.00, dano: 0.130000
x 27  5 costo: 16.00, cto: 47.00, dano: 0.000000
x 29 37 costo: 8.00, cto: 42.00, dano: 0.000000
x 30 27 costo: 1.00, cto: 38.00, dano: 0.030000
x 33 30 costo: 1.00, cto: 42.00, dano: 0.000000
x 36 29 costo: 2.00, cto: 39.00, dano: 0.000000
x 37 41 costo: 1.00, cto: 38.00, dano: 0.000000
x 41 116 costo: 22.00, cto: 49.00, dano: 1.070000
x 47 48 costo: 1.00, cto: 38.00, dano: 0.000000
x 48 33 costo: 13.00, cto: 50.00, dano: 0.000000
x 77  0 costo: 50.00, cto: 48.00, dano: 2.190000
x 78 77 costo: 1.00, cto: 38.00, dano: 0.120000
x 79 78 costo: 2.00, cto: 38.00, dano: 0.160000
x 99 79 costo: 14.00, cto: 50.00, dano: 0.000000
x 116 99 costo: 2.00, cto: 39.00, dano: 0.000000
x  0 47 costo: 21.00, cto: 53.00, dano: 0.000000
x  3  9 costo: 2.00, cto: 38.00, dano: 0.160000
x  4  3 costo: 0.00, cto: 38.00, dano: 0.000000
x  9 21 costo: 14.00, cto: 45.00, dano: 0.680000
x 15  4 costo: 1.00, cto: 38.00, dano: 0.070000
x 16 22 costo: 2.00, cto: 39.00, dano: 0.080000
x 21 23 costo: 1.00, cto: 38.00, dano: 0.070000
x 22 24 costo: 0.00, cto: 38.00, dano: 0.000000
x 23 16 costo: 2.00, cto: 39.00, dano: 0.000000
x 24 34 costo: 2.00, cto: 43.00, dano: 0.000000
x 31 32 costo: 2.00, cto: 38.00, dano: 0.160000
x 32 35 costo: 0.00, cto: 42.00, dano: 0.000000
x 34 31 costo: 1.00, cto: 38.00, dano: 0.000000
x 35 65 costo: 22.00, cto: 51.00, dano: 0.000000
x 63 68 costo: 16.00, cto: 49.00, dano: 0.000000
x 64 63 costo: 1.00, cto: 42.00, dano: 0.000000
x 65 64 costo: 1.00, cto: 39.00, dano: 0.000000
x 68  0 costo: 15.00, cto: 47.00, dano: 0.000000
x 88 15 costo: 13.00, cto: 46.00, dano: 0.000000
x 119 88 costo: 3.00, cto: 39.00, dano: 0.100000
x  0 119 costo: 2.00, cto: 39.00, dano: 0.000000
x 11 53 costo: 28.00, cto: 54.00, dano: 0.000000
x 14 11 costo: 1.00, cto: 38.00, dano: 0.070000
x 52 56 costo: 2.00, cto: 39.00, dano: 0.000000
x 53 55 costo: 1.00, cto: 38.00, dano: 0.000000
x 55 52 costo: 1.00, cto: 39.00, dano: 0.000000
x 56 72 costo: 18.00, cto: 45.00, dano: 1.520000
x 69 98 costo: 12.00, cto: 43.00, dano: 0.500000
x 70 69 costo: 3.00, cto: 38.00, dano: 0.190000
x 72 75 costo: 0.00, cto: 38.00, dano: 0.000000
x 75 70 costo: 5.00, cto: 40.00, dano: 0.430000
x 85 111 costo: 1.00, cto: 38.00, dano: 0.000000
x 93 85 costo: 2.00, cto: 39.00, dano: 0.120000
x 98 103 costo: 3.00, cto: 40.00, dano: 0.170000
x 103 93 costo: 4.00, cto: 40.00, dano: 0.180000
x 111  0 costo: 1.00, cto: 39.00, dano: 0.000000
x  0 14 costo: 14.00, cto: 47.00, dano: 0.000000
x  6 81 costo: 8.00, cto: 44.00, dano: 0.000000
x  7 13 costo: 2.00, cto: 39.00, dano: 0.120000
x 13  6 costo: 2.00, cto: 39.00, dano: 0.000000
x 67 76 costo: 4.00, cto: 40.00, dano: 0.180000
x 73 80 costo: 4.00, cto: 40.00, dano: 0.170000
x 76 120 costo: 12.00, cto: 51.00, dano: 0.000000
x 80 67 costo: 7.00, cto: 41.00, dano: 0.300000
x 81 112 costo: 1.00, cto: 39.00, dano: 0.000000
x 82 83 costo: 3.00, cto: 40.00, dano: 0.000000
x 83  7 costo: 10.00, cto: 42.00, dano: 0.430000
x 84 92 costo: 4.00, cto: 39.00, dano: 0.370000
x 92 95 costo: 2.00, cto: 38.00, dano: 0.070000
x 95 73 costo: 11.00, cto: 50.00, dano: 0.000000
x 102  0 costo: 3.00, cto: 39.00, dano: 0.230000
x 105 102 costo: 1.00, cto: 38.00, dano: 0.030000
x 107 105 costo: 1.00, cto: 38.00, dano: 0.070000
x 112 117 costo: 4.00, cto: 38.00, dano: 0.280000
x 113 84 costo: 3.00, cto: 38.00, dano: 0.250000
x 117 113 costo: 1.00, cto: 38.00, dano: 0.030000
x 120 107 costo: 3.00, cto: 40.00, dano: 0.000000
x  0 82 costo: 1.00, cto: 39.00, dano: 0.000000
x  8 10 costo: 4.00, cto: 40.00, dano: 0.000000
x 10 97 costo: 12.00, cto: 45.00, dano: 0.000000
x 12  8 costo: 2.00, cto: 38.00, dano: 0.120000
x 18 118 costo: 1.00, cto: 38.00, dano: 0.060000
x 43 46 costo: 2.00, cto: 44.00, dano: 0.000000
x 46 49 costo: 2.00, cto: 38.00, dano: 0.080000
x 49 12 costo: 15.00, cto: 49.00, dano: 0.000000
x 89 96 costo: 2.00, cto: 39.00, dano: 0.080000
x 96 101 costo: 1.00, cto: 38.00, dano: 0.070000
x 97 115 costo: 2.00, cto: 39.00, dano: 0.080000
x 101 106 costo: 3.00, cto: 38.00, dano: 0.180000
x 104  0 costo: 3.00, cto: 44.00, dano: 0.000000
x 106 104 costo: 2.00, cto: 38.00, dano: 0.120000
x 108 18 costo: 2.00, cto: 39.00, dano: 0.200000
x 109 108 costo: 3.00, cto: 39.00, dano: 0.270000
x 115 109 costo: 9.00, cto: 39.00, dano: 0.490000
x 118 89 costo: 4.00, cto: 39.00, dano: 0.310000
x  0 43 costo: 22.00, cto: 52.00, dano: 0.000000
x 25 26 costo: 2.00, cto: 43.00, dano: 0.000000
x 26  0 costo: 19.00, cto: 51.00, dano: 0.000000
x 28 25 costo: 1.00, cto: 38.00, dano: 0.000000
x 38 28 costo: 13.00, cto: 44.00, dano: 0.620000
x 39 40 costo: 2.00, cto: 43.00, dano: 0.000000
x 40 58 costo: 14.00, cto: 43.00, dano: 0.520000
x 42 44 costo: 1.00, cto: 39.00, dano: 0.000000
x 44 38 costo: 5.00, cto: 39.00, dano: 0.230000
x 45 51 costo: 2.00, cto: 39.00, dano: 0.000000
x 50 42 costo: 2.00, cto: 40.00, dano: 0.000000
x 51 50 costo: 4.00, cto: 38.00, dano: 0.160000
x 58 60 costo: 1.00, cto: 38.00, dano: 0.000000
x 60 66 costo: 2.00, cto: 39.00, dano: 0.000000
x 66 45 costo: 10.00, cto: 44.00, dano: 0.000000
x 71 39 costo: 23.00, cto: 48.00, dano: 0.970000
x 74 71 costo: 1.00, cto: 38.00, dano: 0.080000
x  0 74 costo: 14.00, cto: 48.00, dano: 0.000000
x 17 19 costo: 1.00, cto: 38.00, dano: 0.050000
x 19 20 costo: 1.00, cto: 38.00, dano: 0.070000
x 20 59 costo: 19.00, cto: 54.00, dano: 0.000000
x 54 61 costo: 2.00, cto: 39.00, dano: 0.000000
x 57 54 costo: 1.00, cto: 38.00, dano: 0.030000
x 59 57 costo: 1.00, cto: 38.00, dano: 0.000000
x 61 62 costo: 1.00, cto: 38.00, dano: 0.000000
x 62 110 costo: 22.00, cto: 51.00, dano: 0.000000
x 86  0 costo: 1.00, cto: 39.00, dano: 0.000000
x 87 91 costo: 1.00, cto: 39.00, dano: 0.000000
x 90 114 costo: 2.00, cto: 38.00, dano: 0.160000
x 91 90 costo: 0.00, cto: 38.00, dano: 0.040000
x 94 86 costo: 3.00, cto: 39.00, dano: 0.130000
x 100 94 costo: 2.00, cto: 39.00, dano: 0.120000
x 110 100 costo: 2.00, cto: 39.00, dano: 0.000000
x 114 17 costo: 17.00, cto: 48.00, dano: 0.000000
x  0 87 costo: 1.00, cto: 39.00, dano: 0.000000
